COLUMNS

passenger_count
pickup_ID
dropoff_ID
request_time_sec
pickup_district
dropoff_district
LDuals
IDuals
vehicle_ID
pick_position
drop_position

REQUESTS_INFO
1      984       1068      31025     291       291       206       206       15        1         4         
1      1024      937       31030     291       291       166       166       19        1         2         
1      356       572       31038     119       131       143       143       69        1         3         
3      971       782       31028     290       291       194       194       79        1         3         
1      779       476       31040     131       52        168       168       100       1         3         
1      1141      1233      31028     84        129       158       158       104       1         3         
1      770       669       31028     290       280       136       136       113       1         3         
1      789       981       31037     290       291       117       117       129       1         3         
1      818       350       30949     290       127       239       239       150       1         4         
1      731       527       31027     131       52        168       168       202       1         2         
1      927       675       31008     290       189       187       187       203       1         4         
3      971       748       31030     290       290       203       203       203       2         3         
2      551       116       31038     189       9         128       128       215       1         3         
3      644       697       31045     131       189       169       169       223       1         2         
1      961       1218      31030     291       84        234       234       247       1         3         
1      914       1087      30937     291       291       221       221       276       1         2         
3      1065      858       31004     291       290       203       203       286       1         2         
1      818       63        31019     290       98        169       169       290       1         4         
1      973       918       31011     84        50        214       214       293       1         3         
3      795       902       30998     290       50        178       178       294       1         2         
1      884       993       30994     290       84        175       175       303       1         2         
1      1109      1047      30993     291       291       231       231       341       1         2         
1      908       606       30971     290       189       234       234       349       1         3         
1      766       481       31024     290       189       141       141       370       1         3         
1      398       486       31024     168       199       192       192       371       1         2         
1      896       556       31026     291       199       211       211       383       1         3         
1      842       770       31038     290       290       156       156       393       1         2         
3      511       44        31042     199       98        134       134       416       1         3         
3      992       925       31013     290       290       224       224       418       2         4         
1      687       673       31027     131       189       161       161       430       1         2         
1      398       696       31030     168       189       186       186       442       1         2         
1      1001      1149      31028     291       291       217       217       466       1         2         
1      840       1143      30960     290       84        205       205       472       1         2         
1      1022      461       30994     291       189       223.5     223.5     543       1         3         
1      771       454       31011     290       52        147       147       544       1         2         
1      904       438       31026     290       100       173       173       554       1         3         
1      907       623       31043     290       280       143       143       564       1         2         
1      1078      736       31027     84        131       201       201       650       1         2         
3      905       504       30993     290       52        211       211       653       1         3         
1      1010      551       31014     290       189       201       201       658       1         2         
2      992       925       31013     290       290       224       224       662       1         2         
1      1053      859       30899     84        290       333       333       664       1         2         
3      511       44        31042     199       98        134       134       665       1         3         
3      915       1168      30901     291       291       320       320       672       1         2         
3      693       555       31002     280       199       210       210       674       1         2         
1      1066      743       31038     291       290       177       177       676       1         3         
2      1044      992       30919     291       290       303       303       702       1         2         
1      914       881       31048     291       290       169       169       703       1         2         
1      630       557       31039     189       189       100       100       704       1         2         
1      1089      1224      30993     291       192       208       208       718       1         2         
1      925       794       31039     290       290       181       181       756       1         2         
1      848       549       30994     291       52        246       246       760       1         2         
1      510       664       31030     199       131       147       147       761       1         2         
2      644       697       31045     131       189       169       169       762       1         3         
3      648       852       31022     189       291       132       132       779       1         3         
4      923       649       31014     290       189       236       236       787       1         2         
1      940       1286      31050     291       129       0         0         0         0         0         
1      731       572       31050     131       131       0         0         0         0         0         
1      841       1079      31050     290       84        0         0         0         0         0         
3      1055      1034      31051     84        84        0         0         0         0         0         
3      1055      1034      31051     84        84        0         0         0         0         0         
1      645       31        31051     280       9         0         0         0         0         0         
1      549       289       31052     52        127       0         0         0         0         0         
1      840       909       31053     290       290       0         0         0         0         0         
4      679       745       31053     290       290       0         0         0         0         0         
1      351       530       31054     52        189       0         0         0         0         0         
1      434       557       31054     52        189       0         0         0         0         0         
1      629       627       31054     189       189       0         0         0         0         0         
1      948       805       31055     290       291       0         0         0         0         0         
1      710       574       31055     131       189       0         0         0         0         0         
3      1273      1305      31056     84        129       0         0         0         0         0         
2      940       858       31056     291       290       0         0         0         0         0         
3      940       858       31056     291       290       0         0         0         0         0         
2      863       411       31056     290       52        0         0         0         0         0         
1      550       816       31056     189       290       0         0         0         0         0         
3      1273      1305      31056     84        129       0         0         0         0         0         
2      466       556       31057     199       199       0         0         0         0         0         
3      1390      1073      31057     129       50        0         0         0         0         0         
2      948       720       31058     290       290       0         0         0         0         0         
3      948       720       31058     290       290       0         0         0         0         0         
1      925       813       31059     290       290       0         0         0         0         0         
3      897       134       31060     291       9         0         0         0         0         0         
3      897       134       31060     291       9         0         0         0         0         0         
1      389       653       31060     299       189       0         0         0         0         0         
2      926       696       31060     290       189       0         0         0         0         0         
1      1107      850       31060     291       291       0         0         0         0         0         
1      436       455       31061     100       52        0         0         0         0         0         
1      925       984       31061     290       291       0         0         0         0         0         
2      351       398       31061     52        168       0         0         0         0         0         
1      333       512       31062     119       199       0         0         0         0         0         
1      20        862       31062     98        290       0         0         0         0         0         
1      697       663       31062     189       131       0         0         0         0         0         
1      912       782       31062     291       291       0         0         0         0         0         
1      700       883       31063     290       290       0         0         0         0         0         
2      711       526       31064     131       52        0         0         0         0         0         
3      711       526       31064     131       52        0         0         0         0         0         
1      912       923       31064     291       290       0         0         0         0         0         
1      306       647       31064     299       280       0         0         0         0         0         
1      1132      1022      31064     291       291       0         0         0         0         0         
1      234       527       31064     87        52        0         0         0         0         0         
1      714       458       31065     131       52        0         0         0         0         0         
2      511       556       31065     199       199       0         0         0         0         0         
3      511       556       31065     199       199       0         0         0         0         0         
1      1022      1161      31066     291       84        0         0         0         0         0         
1      1087      903       31066     291       290       0         0         0         0         0         
1      480       480       31066     52        52        0         0         0         0         0         
1      632       829       31067     189       50        0         0         0         0         0         
1      731       527       31067     131       52        0         0         0         0         0         
1      374       531       31067     119       189       0         0         0         0         0         
1      216       693       31067     178       280       0         0         0         0         0         
1      314       811       31067     119       290       0         0         0         0         0         
2      694       1128      31068     189       291       0         0         0         0         0         
2      436       194       31068     100       207       0         0         0         0         0         
1      133       144       31069     9         54        0         0         0         0         0         
1      601       21        31069     189       98        0         0         0         0         0         
1      859       1208      31069     290       192       0         0         0         0         0         
1      958       1168      31069     291       291       0         0         0         0         0         
1      457       376       31069     52        168       0         0         0         0         0         
1      875       990       31069     291       290       0         0         0         0         0         
1      738       557       31070     189       189       0         0         0         0         0         
3      696       858       31070     189       290       0         0         0         0         0         
2      696       858       31070     189       290       0         0         0         0         0         
3      409       331       31071     52        127       0         0         0         0         0         
2      740       332       31071     50        87        0         0         0         0         0         
3      409       331       31071     52        127       0         0         0         0         0         
1      1021      350       31071     291       127       0         0         0         0         0         
1      1109      874       31072     291       291       0         0         0         0         0         
1      466       771       31072     199       290       0         0         0         0         0         
2      1157      1232      31072     129       129       0         0         0         0         0         
1      325       9         31072     299       98        0         0         0         0         0         
1      304       673       31073     299       189       0         0         0         0         0         
1      1044      1244      31074     291       192       0         0         0         0         0         
1      865       814       31074     290       290       0         0         0         0         0         
1      894       904       31074     291       290       0         0         0         0         0         
1      268       556       31074     299       199       0         0         0         0         0         
2      839       535       31075     290       189       0         0         0         0         0         
1      276       504       31075     87        52        0         0         0         0         0         
1      395       199       31075     100       178       0         0         0         0         0         
1      760       557       31075     291       189       0         0         0         0         0         
2      929       969       31075     290       290       0         0         0         0         0         
1      888       723       31076     290       290       0         0         0         0         0         
1      701       527       31077     290       52        0         0         0         0         0         
2      863       669       31077     290       280       0         0         0         0         0         
3      727       744       31078     290       290       0         0         0         0         0         
3      727       744       31078     290       290       0         0         0         0         0         
1      583       415       31078     189       100       0         0         0         0         0         
1      772       373       31078     290       119       0         0         0         0         0         
3      873       959       31078     291       291       0         0         0         0         0         
1      214       905       31079     207       290       0         0         0         0         0         
